Speck32/MILP/sol/6Round_232.sol
# Objective value = 16.0
pro0Rd0 -0.0
pro1Rd0 0.9999999999999993
pro2Rd0 1.8065952584089935e-16
pro3Rd0 0.0
pro4Rd0 -3.9464469043592033e-16
pro5Rd0 1.999342311295303e-16
pro6Rd0 1.0000000000000002
pro7Rd0 1.270170409528767e-16
pro8Rd0 1.0000000000000002
pro9Rd0 -2.6156101766592715e-16
pro10Rd0 1.0000000000000002
pro11Rd0 -1.380722278506283e-16
pro12Rd0 1.0000000000000002
pro13Rd0 6.80717252810424e-16
pro14Rd0 1.1102230246251565e-16
pro0Rd1 0.0
pro1Rd1 1.0
pro2Rd1 -6.868328881155664e-17
pro3Rd1 -2.57091899558325e-16
pro4Rd1 -6.938893903907228e-16
pro5Rd1 1.1102230246251565e-16
pro6Rd1 0.0
pro7Rd1 1.4374356486437272e-17
pro8Rd1 1.0
pro9Rd1 2.2972835184687276e-16
pro10Rd1 2.2972835184687276e-16
pro11Rd1 -1.1055186897749521e-17
pro12Rd1 -1.628875941849406e-16
pro13Rd1 1.0
pro14Rd1 0.0
pro0Rd2 -0.0
pro1Rd2 -9.927126603485368e-17
pro2Rd2 -5.5275934488747604e-18
pro3Rd2 -2.7637967244373802e-18
pro4Rd2 1.0
pro5Rd2 0.0
pro6Rd2 1.0
pro7Rd2 0.0
pro8Rd2 -0.0
pro9Rd2 -3.7470027081099033e-16
pro10Rd2 2.401366927027332e-16
pro11Rd2 -0.0
pro12Rd2 -0.0
pro13Rd2 0.0
pro14Rd2 0.0
pro0Rd3 -1.90995994914328e-16
pro1Rd3 -0.0
pro2Rd3 -5.5275934488747604e-18
pro3Rd3 1.1207097710618544e-16
pro4Rd3 -0.0
pro5Rd3 -0.0
pro6Rd3 -0.0
pro7Rd3 2.340406587928038e-16
pro8Rd3 -3.3157720135168074e-16
pro9Rd3 0.0
pro10Rd3 4.440696084548536e-17
pro11Rd3 1.0
pro12Rd3 -0.0
pro13Rd3 0.0
pro14Rd3 -0.0
pro0Rd4 -0.0
pro1Rd4 -0.0
pro2Rd4 1.0
pro3Rd4 1.1207097710618544e-16
pro4Rd4 -8.365875475106242e-17
pro5Rd4 -9.927126603485368e-17
pro6Rd4 0.0
pro7Rd4 0.0
pro8Rd4 1.1458240586731003e-16
pro9Rd4 -5.5275934488747604e-18
pro10Rd4 1.1526845469961703e-16
pro11Rd4 1.0
pro12Rd4 -9.927126603485368e-17
pro13Rd4 -9.927126603485368e-17
pro14Rd4 2.340406587928038e-16
pro0Rd5 -5.65402244797184e-17
pro1Rd5 -3.057686976601233e-16
pro2Rd5 1.0000000000000007
pro3Rd5 -2.9954852158053787e-16
pro4Rd5 -0.0
pro5Rd5 -1.4891179940108278e-16
pro6Rd5 8.180642290383261e-17
pro7Rd5 -0.0
pro8Rd5 3.70897600140488e-16
pro9Rd5 0.9999999999999987
pro10Rd5 0.0
pro11Rd5 1.0000000000000007
pro12Rd5 -0.0
pro13Rd5 3.3871210920767545e-17
pro14Rd5 -1.90995994914328e-16
p0 1.0
p1 1.270170409528767e-16
p2 1.0
p3 -2.6156101766592715e-16
p4 -2.0604986643466932e-16
p5 -1.928777288543705e-16
p6 1.0
p7 9.785016488221681e-17
p8 0.0
p9 7.175286730125094e-16
p10 1.4374356486437272e-17
p11 3.340600447447926e-16
p12 4.661473132583413e-16
p13 -0.0
p14 -0.0
p15 9.255778817584752e-17
p16 8.823274032303061e-16
p17 1.1102230246251565e-16
p18 1.0
p19 1.4374356486437272e-17
p20 -0.0
p21 2.2972835184687276e-16
p22 2.855531254014706e-16
p23 -2.082844254884678e-16
p24 -5.1865291722424936e-17
p25 1.0
p26 0.0
p27 1.0
p28 0.0
p29 0.9999999999999999
p30 -6.868328881155667e-17
p31 1.1102230246251565e-16
p0Rd1 0.0
p16Rd1 1.0
temp0Rnd0 1.0
p1Rd1 1.4374356486437272e-17
p17Rd1 -0.0
temp1Rnd0 1.4374356486437272e-17
p2Rd1 1.0
p18Rd1 1.0
temp2Rnd0 1.0
p3Rd1 2.2972835184687276e-16
p19Rd1 0.0
temp3Rnd0 2.2972835184687276e-16
p4Rd1 -0.0
p20Rd1 2.855531254014706e-16
temp4Rnd0 2.855531254014706e-16
p5Rd1 -6.2567653506416e-17
p21Rd1 -3.7470027081099033e-16
temp5Rnd0 -2.082844254884678e-16
p6Rd1 -1.628875941849406e-16
p22Rd1 1.1102230246251565e-16
temp6Rnd0 -5.1865291722424936e-17
p7Rd1 1.0
p23Rd1 -0.0
temp7Rnd0 1.0
p8Rd1 0.0
p24Rd1 0.0
temp8Rnd0 0.0
p9Rd1 0.0
p25Rd1 1.0
temp9Rnd0 1.0
p10Rd1 0.0
p26Rd1 -0.0
temp10Rnd0 -0.0
p11Rd1 0.9999999999999999
p27Rd1 -0.0
temp11Rnd0 0.9999999999999999
p12Rd1 -2.7049925388113296e-17
p28Rd1 0.0
temp12Rnd0 -9.643886442718558e-17
p13Rd1 -2.7026403713862335e-16
p29Rd1 -3.257751883698812e-16
temp13Rnd0 -2.7026403713862335e-16
p14Rd1 -6.938893903907228e-16
p30Rd1 -1.1055186897749521e-17
temp14Rnd0 -1.1055186897749521e-17
p15Rd1 1.1102230246251565e-16
p31Rd1 -0.0
temp15Rnd0 1.1102230246251565e-16
temp0 1.1102230246251565e-16
p0Rd2 1.0
p16Rd2 -0.0
temp0Rnd1 1.0
p1Rd2 0.0
p17Rd2 -0.0
temp1Rnd1 0.0
p2Rd2 0.0
p18Rd2 -9.927126603485368e-17
temp2Rnd1 1.356416548447402e-16
p3Rd2 -3.7470027081099033e-16
p19Rd2 -0.0
temp3Rnd1 -3.7470027081099033e-16
p4Rd2 -6.233243676391142e-18
p20Rd2 -2.7637967244373802e-18
temp4Rnd1 -6.233243676391142e-18
p5Rd2 0.0
p21Rd2 -0.0
temp5Rnd1 0.0
p6Rd2 -0.0
p22Rd2 0.0
temp6Rnd1 -0.0
p7Rd2 0.0
p23Rd2 1.0
temp7Rnd1 1.0
p8Rd2 -0.0
p24Rd2 -0.0
temp8Rnd1 0.0
p9Rd2 -0.0
p25Rd2 0.0
temp9Rnd1 0.0
p10Rd2 0.0
p26Rd2 0.0
temp10Rnd1 0.0
p11Rd2 2.2972835184687276e-16
p27Rd2 -9.927126603485368e-17
temp11Rnd1 -3.257751883698812e-16
p12Rd2 -1.1055186897749521e-17
p28Rd2 0.0
temp12Rnd1 -1.1055186897749521e-17
p13Rd2 0.0
p29Rd2 -0.0
temp13Rnd1 0.0
p14Rd2 1.0
p30Rd2 -0.0
temp14Rnd1 1.0
p15Rd2 -0.0
p31Rd2 -0.0
temp15Rnd1 0.0
temp1 -0.0
p0Rd3 -0.0
p16Rd3 -9.927126603485368e-17
temp0Rnd2 -9.927126603485368e-17
p1Rd3 0.0
p17Rd3 0.0
temp1Rnd2 -0.0
p2Rd3 -3.496888905245921e-17
p18Rd3 1.4173278840586794e-16
temp2Rnd2 1.1141433036669132e-16
p3Rd3 -5.5275934488747604e-18
p19Rd3 -5.5275934488747604e-18
temp3Rnd2 -5.5275934488747604e-18
p4Rd3 1.1207097710618544e-16
p20Rd3 1.1207097710618544e-16
temp4Rnd2 1.1207097710618544e-16
p5Rd3 1.0
p21Rd3 0.0
temp5Rnd2 1.0
p6Rd3 0.0
p22Rd3 -0.0
temp6Rnd2 -0.0
p7Rd3 0.0
p23Rd3 0.0
temp7Rnd2 0.0
p8Rd3 -0.0
p24Rd3 0.0
temp8Rnd2 0.0
p9Rd3 0.0
p25Rd3 -9.927126603485368e-17
temp9Rnd2 -9.927126603485368e-17
p10Rd3 -3.81991989828656e-16
p26Rd3 -1.2001934286334403e-16
temp10Rnd2 -2.2498481420634793e-16
p11Rd3 1.4173278840586794e-16
p27Rd3 1.4173278840586794e-16
temp11Rnd2 1.4173278840586794e-16
p12Rd3 0.0
p28Rd3 -0.0
temp12Rnd2 -0.0
p13Rd3 -0.0
p29Rd3 -0.0
temp13Rnd2 0.0
p14Rd3 0.0
p30Rd3 -0.0
temp14Rnd2 -0.0
p15Rd3 0.0
p31Rd3 0.0
temp15Rnd2 -0.0
temp2 0.0
p0Rd4 -9.927126603485368e-17
p16Rd4 2.945109630118821e-17
temp0Rnd3 2.945109630118821e-17
p1Rd4 -1.90995994914328e-16
p17Rd4 -5.5275934488747604e-18
temp1Rnd3 1.9734684696197206e-16
p2Rd4 1.4173278840586794e-16
p18Rd4 1.4407270495891573e-16
temp2Rnd3 2.130328634777961e-16
p3Rd4 -0.0
p19Rd4 0.0
temp3Rnd3 -0.0
p4Rd4 1.1207097710618544e-16
p20Rd4 1.1207097710618544e-16
temp4Rnd3 1.1207097710618544e-16
p5Rd4 -0.0
p21Rd4 0.0
temp5Rnd3 0.0
p6Rd4 -0.0
p22Rd4 -0.0
temp6Rnd3 0.0
p7Rd4 -0.0
p23Rd4 -9.927126603485368e-17
temp7Rnd3 -9.927126603485368e-17
p8Rd4 2.340406587928038e-16
p24Rd4 -1.90995994914328e-16
temp8Rnd3 1.0202526206168728e-16
p9Rd4 -6.511583488355889e-16
p25Rd4 2.558815134041838e-16
temp9Rnd3 -1.805484512680496e-16
p10Rd4 -5.5275934488747604e-18
p26Rd4 -5.5275934488747604e-18
temp10Rnd3 -5.5275934488747604e-18
p11Rd4 1.4407270495891573e-16
p27Rd4 1.4407270495891573e-16
temp11Rnd3 1.4407270495891573e-16
p12Rd4 1.0
p28Rd4 1.0
temp12Rnd3 1.0
p13Rd4 0.0
p29Rd4 -0.0
temp13Rnd3 0.0
p14Rd4 -0.0
p30Rd4 -9.927126603485368e-17
temp14Rnd3 -9.927126603485368e-17
p15Rd4 -0.0
p31Rd4 0.0
temp15Rnd3 -0.0
temp3 0.0
p0Rd5 1.4407270495891573e-16
p16Rd5 -0.0
temp0Rnd4 1.4407270495891573e-16
p1Rd5 -5.5275934488747604e-18
p17Rd5 -5.5275934488747604e-18
temp1Rnd4 -5.5275934488747604e-18
p2Rd5 1.4407270495891573e-16
p18Rd5 -2.502575464288655e-16
temp2Rnd4 -1.548836911413572e-17
p3Rd5 0.9999999999999997
p19Rd5 0.9999999999999997
temp3Rnd4 0.9999999999999997
p4Rd5 0.0
p20Rd5 -0.0
temp4Rnd4 -0.0
p5Rd5 -8.365875475106242e-17
p21Rd5 -1.9854253206970737e-16
temp5Rnd4 -1.9854253206970737e-16
p6Rd5 -9.927126603485368e-17
p22Rd5 1.4237473409895567e-16
temp6Rnd4 -1.0343656251671872e-16
p7Rd5 -9.927126603485368e-17
p23Rd5 5.547929896404383e-17
temp7Rnd4 2.558815134041838e-16
p8Rd5 -1.90995994914328e-16
p24Rd5 -5.5275934488747604e-18
temp8Rnd4 1.9734684696197206e-16
p9Rd5 3.70897600140488e-16
p25Rd5 4.885157720907574e-16
temp9Rnd4 4.885157720907574e-16
p10Rd5 -1.1055186897749521e-17
p26Rd5 1.0
temp10Rnd4 1.0
p11Rd5 0.0
p27Rd5 0.0
temp11Rnd4 0.0
p12Rd5 1.0000000000000002
p28Rd5 1.0000000000000002
temp12Rnd4 1.0000000000000002
p13Rd5 -9.927126603485368e-17
p29Rd5 -9.927126603485368e-17
temp13Rnd4 -9.927126603485368e-17
p14Rd5 -1.9854253206970737e-16
p30Rd5 -1.7221785830431918e-16
temp14Rnd4 -1.9060396701015246e-16
p15Rd5 2.340406587928038e-16
p31Rd5 -1.90995994914328e-16
temp15Rnd4 -5.5275934488747604e-18
temp4 2.340406587928038e-16
p0Rd6 -2.502575464288655e-16
p16Rd6 -0.0
temp0Rnd5 -2.502575464288655e-16
p1Rd6 -2.3033599509834344e-16
p17Rd6 0.9999999999999996
temp1Rnd5 0.9999999999999996
p2Rd6 -5.00515092857731e-16
p18Rd6 -5.00515092857731e-16
temp2Rnd5 -5.00515092857731e-16
p3Rd6 -5.990970431610757e-16
p19Rd6 -5.860033111616126e-16
temp3Rnd5 -5.860033111616126e-16
p4Rd6 -2.9954852158053787e-16
p20Rd6 -5.54680281617986e-16
temp4Rnd5 -2.9954852158053787e-16
p5Rd6 -1.9854253206970737e-16
p21Rd6 -3.082319396580264e-16
temp5Rnd5 -1.9854253206970737e-16
p6Rd6 -2.2901535109615257e-16
p22Rd6 -2.2131935330230683e-16
temp6Rnd5 -2.2901535109615257e-16
p7Rd6 1.6547497835249954e-16
p23Rd6 5.190645465236371e-16
temp7Rnd5 4.885157720907574e-16
p8Rd6 -5.5275934488747604e-18
p24Rd6 1.0
temp8Rnd5 1.0
p9Rd6 6.522658276648841e-16
p25Rd6 7.077769788961419e-16
temp9Rnd5 6.522658276648841e-16
p10Rd6 9.590178619846486e-16
p26Rd6 0.9999999999999989
temp10Rnd5 1.0000000000000002
p11Rd6 -0.0
p27Rd6 9.927126603485368e-17
temp11Rnd5 0.0
p12Rd6 1.0000000000000002
p28Rd6 1.0000000000000007
temp12Rnd5 1.0000000000000002
p13Rd6 -9.927126603485368e-17
p29Rd6 3.100940722028607e-17
temp13Rnd5 -9.927126603485368e-17
p14Rd6 -1.314077534796444e-16
p30Rd6 -1.314077534796444e-16
temp14Rnd5 -1.314077534796444e-16
p15Rd6 -1.90995994914328e-16
p31Rd6 2.4097955269671105e-16
temp15Rnd5 -5.5275934488747604e-18
temp5 -2.587384167558631e-16
